p cnf 161616 96
10203 0
10304 0
10602 0
10745 0
10801 0
10944 0
11042 0
11605 0
20147 0
20505 0
21006 0
21108 0
30205 0
30807 0
31303 0
31408 0
31547 0
31606 0
40201 0
40444 0
40603 0
41248 0
41442 0
41509 0
50208 0
50347 0
50501 0
51242 0
51343 0
51607 0
60101 0
60206 0
60545 0
60643 0
61146 0
61309 0
61402 0
61604 0
70706 0
71244 0
71546 0
71645 0
80344 0
80445 0
80509 0
80746 0
80847 0
81204 0
90504 0
90902 0
91009 0
91206 0
91305 0
91443 0
100109 0
100202 0
100507 0
101001 0
110105 0
110345 0
110404 0
110648 0
111142 0
111208 0
111501 0
111644 0
120144 0
120447 0
120506 0
121245 0
121409 0
121508 0
130244 0
130343 0
130547 0
131102 0
131348 0
131542 0
140148 0
140245 0
140309 0
140405 0
140901 0
141544 0
150645 0
150701 0
151246 0
151603 0
160108 0
160703 0
160848 0
160947 0
161004 0
161105 0
161407 0
161506 0
